c max 190  191  192  193  194  195  196  197  211  213  215  216 0
c ind 719  720  721  724  725  726  729  730  731  734  735  736  739  740  741  744  745  746  749  750  751  754  755  756  759  760  761  764  765  766  769  770  771  772  775  776  777  778  781  782  783  786  787  788  789  792  793  794  795  798  799  800  803  804  805  808  809  810  811  813  814  815  816  817 0
c This is a CNF SAT formula in the DIMACS CNF format,
c produced with the bc2cnf translator by Tommi Junttila;
c see http://users.ics.aalto.fi/tjunttil/circuits/index.html
c phi_Gamma_det <-> 1
c phi_Gamma <-> 1
c phi_T_transitions <-> 1
c phi_T_transitions_consistency <-> 1
c phi_T <-> 1
c phi_sim_leaves <-> 1
c phi_sim_transition <-> 1
c phi_sim <-> 1
c FORMULA <-> 1
c pi_0 <-> 2
c tau_0_3_approved_1 <-> 190
c tau_0_3_approved_0 <-> 191
c tau_0_2_approved_1 <-> 192
c tau_0_2_approved_0 <-> 193
c tau_0_1_approved_1 <-> 194
c tau_0_1_approved_0 <-> 195
c tau_0_0_approved_1 <-> 196
c tau_0_0_approved_0 <-> 197
c phi_T_feature_det <-> 198
c lam_0_credit_score <-> 211
c lam_0_dependents <-> 213
c lam_0_monthly_income <-> 215
c lam_0_age <-> 216
c phi_Gamma_val <-> 717
c credit_score_P56600 <-> 719
c monthly_income_P612238 <-> 720
c age_P2300 <-> 721
c credit_score_P58500 <-> 724
c monthly_income_P616228 <-> 725
c age_P2700 <-> 726
c credit_score_P30200 <-> 729
c dependents_P200 <-> 730
c monthly_income_P737984 <-> 731
c credit_score_P44500 <-> 734
c monthly_income_P768965 <-> 735
c age_P2900 <-> 736
c credit_score_P68000 <-> 739
c monthly_income_P530640 <-> 740
c age_P6700 <-> 741
c credit_score_P39100 <-> 744
c monthly_income_P588700 <-> 745
c age_P6300 <-> 746
c credit_score_P55600 <-> 749
c monthly_income_P660313 <-> 750
c age_P2100 <-> 751
c credit_score_P46100 <-> 754
c monthly_income_P741252 <-> 755
c age_P1900 <-> 756
c credit_score_P33000 <-> 759
c monthly_income_P974293 <-> 760
c age_P2200 <-> 761
c credit_score_P64800 <-> 764
c monthly_income_P714034 <-> 765
c age_P1800 <-> 766
c credit_score_P38500 <-> 769
c dependents_P300 <-> 770
c monthly_income_P466725 <-> 771
c age_P6900 <-> 772
c credit_score_P59900 <-> 775
c dependents_P500 <-> 776
c monthly_income_P428714 <-> 777
c age_P5800 <-> 778
c credit_score_P74500 <-> 781
c monthly_income_P810245 <-> 782
c age_P5700 <-> 783
c credit_score_P61700 <-> 786
c dependents_P0 <-> 787
c monthly_income_P786495 <-> 788
c age_P3800 <-> 789
c pi_approved_1 <-> 792
c approved_P100 <-> 792
c credit_score_P41800 <-> 793
c monthly_income_P894106 <-> 794
c age_P5000 <-> 795
c credit_score_P89100 <-> 798
c monthly_income_P560566 <-> 799
c age_P2000 <-> 800
c credit_score_P86700 <-> 803
c dependents_P600 <-> 804
c monthly_income_P394158 <-> 805
c credit_score_P79800 <-> 808
c dependents_P100 <-> 809
c monthly_income_P348828 <-> 810
c age_P5600 <-> 811
c pi_approved_0 <-> 813
c approved_P0 <-> 813
c credit_score_P81400 <-> 814
c dependents_P400 <-> 815
c monthly_income_P169231 <-> 816
c age_P6500 <-> 817
p cnf 817 2290
1 0
2 -3 0
2 -6 0
-2 6 3 0
2 0
-3 4 0
-3 96 0
3 -96 -4 0
-4 5 0
-4 211 0
4 -211 -5 0
5 -66 0
5 -105 0
-5 105 66 0
6 -7 0
6 -15 0
-6 15 7 0
-7 8 0
-7 117 0
7 -117 -8 0
-8 9 0
-8 211 0
8 -211 -9 0
9 -10 0
9 -130 0
-9 130 10 0
10 -11 0
10 -134 0
-10 134 11 0
11 -12 0
11 -76 0
-11 76 12 0
12 -13 0
12 -146 0
-12 146 13 0
13 -14 0
13 -158 0
-13 158 14 0
14 -101 0
14 -121 0
-14 121 101 0
15 -16 0
15 -24 0
-15 24 16 0
-16 17 0
-16 125 0
16 -125 -17 0
-17 18 0
-17 211 0
17 -211 -18 0
18 -19 0
18 -138 0
-18 138 19 0
19 -20 0
19 -142 0
-19 142 20 0
20 -21 0
20 -80 0
-20 80 21 0
21 -22 0
21 -150 0
-21 150 22 0
22 -23 0
22 -154 0
-22 154 23 0
23 -84 0
23 -109 0
-23 109 84 0
24 -25 0
24 -37 0
-24 37 25 0
-25 26 0
-25 117 0
25 -117 -26 0
-26 27 0
-26 213 0
26 -213 -27 0
27 -28 0
27 -134 0
-27 134 28 0
28 -29 0
28 -80 0
-28 80 29 0
29 -30 0
29 -146 0
-29 146 30 0
30 -31 0
30 -154 0
-30 154 31 0
31 -32 0
31 -158 0
-31 158 32 0
32 -33 0
32 -84 0
-32 84 33 0
33 -34 0
33 -101 0
-33 101 34 0
34 -35 0
34 -105 0
-34 105 35 0
35 -36 0
35 -109 0
-35 109 36 0
36 -87 0
36 -161 0
-36 161 87 0
37 -38 0
37 -46 0
-37 46 38 0
-38 39 0
-38 125 0
38 -125 -39 0
-39 40 0
-39 213 0
39 -213 -40 0
40 -41 0
40 -130 0
-40 130 41 0
41 -42 0
41 -138 0
-41 138 42 0
42 -43 0
42 -142 0
-42 142 43 0
43 -44 0
43 -76 0
-43 76 44 0
44 -45 0
44 -150 0
-44 150 45 0
45 -112 0
45 -121 0
-45 121 112 0
46 -47 0
46 -59 0
-46 59 47 0
-47 48 0
-47 117 0
47 -117 -48 0
-48 49 0
-48 215 0
48 -215 -49 0
49 -50 0
49 -130 0
-49 130 50 0
50 -51 0
50 -134 0
-50 134 51 0
51 -52 0
51 -138 0
-51 138 52 0
52 -53 0
52 -142 0
-52 142 53 0
53 -54 0
53 -146 0
-53 146 54 0
54 -55 0
54 -150 0
-54 150 55 0
55 -56 0
55 -154 0
-55 154 56 0
56 -57 0
56 -158 0
-56 158 57 0
57 -58 0
57 -105 0
-57 105 58 0
58 -109 0
58 -121 0
-58 121 109 0
59 -60 0
59 -69 0
-59 69 60 0
-60 61 0
-60 125 0
60 -125 -61 0
-61 62 0
-61 215 0
61 -215 -62 0
62 -63 0
62 -76 0
-62 76 63 0
63 -64 0
63 -80 0
-63 80 64 0
64 -65 0
64 -84 0
-64 84 65 0
65 -66 0
65 -101 0
-65 101 66 0
66 -67 0
66 -161 0
-66 161 67 0
67 -68 0
67 -88 0
-67 88 68 0
68 -91 0
68 -112 0
-68 112 91 0
69 -70 0
69 -94 0
-69 94 70 0
-70 71 0
-70 74 0
70 -74 -71 0
-71 72 0
-71 73 0
71 -73 -72 0
72 190 0
72 -792 0
-72 792 -190 0
73 191 0
73 -813 0
-73 813 -191 0
-74 75 0
-74 216 0
74 -216 -75 0
75 -76 0
75 -79 0
-75 79 76 0
-76 77 0
-76 739 0
76 -739 -77 0
-77 78 0
-77 787 0
77 -787 -78 0
-78 740 0
-78 741 0
78 -741 -740 0
79 -80 0
79 -83 0
-79 83 80 0
-80 81 0
-80 744 0
80 -744 -81 0
-81 82 0
-81 815 0
81 -815 -82 0
-82 745 0
-82 746 0
82 -746 -745 0
83 -84 0
83 -87 0
-83 87 84 0
-84 85 0
-84 769 0
84 -769 -85 0
-85 86 0
-85 770 0
85 -770 -86 0
-86 771 0
-86 772 0
86 -772 -771 0
87 -88 0
87 -91 0
-87 91 88 0
-88 89 0
-88 803 0
88 -803 -89 0
-89 90 0
-89 804 0
89 -804 -90 0
-90 805 0
-90 817 0
90 -817 -805 0
-91 92 0
-91 814 0
91 -814 -92 0
-92 93 0
-92 815 0
92 -815 -93 0
-93 816 0
-93 817 0
93 -817 -816 0
94 -95 0
94 -115 0
-94 115 95 0
-95 96 0
-95 99 0
95 -99 -96 0
-96 97 0
-96 98 0
96 -98 -97 0
97 192 0
97 -792 0
-97 792 -192 0
98 193 0
98 -813 0
-98 813 -193 0
-99 100 0
-99 216 0
99 -216 -100 0
100 -101 0
100 -104 0
-100 104 101 0
-101 102 0
-101 775 0
101 -775 -102 0
-102 103 0
-102 776 0
102 -776 -103 0
-103 777 0
-103 778 0
103 -778 -777 0
104 -105 0
104 -108 0
-104 108 105 0
-105 106 0
-105 781 0
105 -781 -106 0
-106 107 0
-106 815 0
106 -815 -107 0
-107 782 0
-107 783 0
107 -783 -782 0
108 -109 0
108 -112 0
-108 112 109 0
-109 110 0
-109 793 0
109 -793 -110 0
-110 111 0
-110 815 0
110 -815 -111 0
-111 794 0
-111 795 0
111 -795 -794 0
-112 113 0
-112 808 0
112 -808 -113 0
-113 114 0
-113 809 0
113 -809 -114 0
-114 810 0
-114 811 0
114 -811 -810 0
115 -116 0
115 -124 0
-115 124 116 0
-116 117 0
-116 120 0
116 -120 -117 0
-117 118 0
-117 119 0
117 -119 -118 0
118 194 0
118 -792 0
-118 792 -194 0
119 195 0
119 -813 0
-119 813 -195 0
-120 121 0
-120 216 0
120 -216 -121 0
-121 122 0
-121 786 0
121 -786 -122 0
-122 123 0
-122 787 0
122 -787 -123 0
-123 788 0
-123 789 0
123 -789 -788 0
-124 125 0
-124 128 0
124 -128 -125 0
-125 126 0
-125 127 0
125 -127 -126 0
126 196 0
126 -792 0
-126 792 -196 0
127 197 0
127 -813 0
-127 813 -197 0
-128 129 0
-128 216 0
128 -216 -129 0
129 -130 0
129 -133 0
-129 133 130 0
-130 131 0
-130 719 0
130 -719 -131 0
-131 132 0
-131 730 0
131 -730 -132 0
-132 720 0
-132 721 0
132 -721 -720 0
133 -134 0
133 -137 0
-133 137 134 0
-134 135 0
-134 724 0
134 -724 -135 0
-135 136 0
-135 770 0
135 -770 -136 0
-136 725 0
-136 726 0
136 -726 -725 0
137 -138 0
137 -141 0
-137 141 138 0
-138 139 0
-138 729 0
138 -729 -139 0
-139 140 0
-139 730 0
139 -730 -140 0
-140 731 0
-140 756 0
140 -756 -731 0
141 -142 0
141 -145 0
-141 145 142 0
-142 143 0
-142 734 0
142 -734 -143 0
-143 144 0
-143 787 0
143 -787 -144 0
-144 735 0
-144 736 0
144 -736 -735 0
145 -146 0
145 -149 0
-145 149 146 0
-146 147 0
-146 749 0
146 -749 -147 0
-147 148 0
-147 776 0
147 -776 -148 0
-148 750 0
-148 751 0
148 -751 -750 0
149 -150 0
149 -153 0
-149 153 150 0
-150 151 0
-150 754 0
150 -754 -151 0
-151 152 0
-151 787 0
151 -787 -152 0
-152 755 0
-152 756 0
152 -756 -755 0
153 -154 0
153 -157 0
-153 157 154 0
-154 155 0
-154 759 0
154 -759 -155 0
-155 156 0
-155 815 0
155 -815 -156 0
-156 760 0
-156 761 0
156 -761 -760 0
157 -158 0
157 -161 0
-157 161 158 0
-158 159 0
-158 764 0
158 -764 -159 0
-159 160 0
-159 770 0
159 -770 -160 0
-160 765 0
-160 766 0
160 -766 -765 0
-161 162 0
-161 798 0
161 -798 -162 0
-162 163 0
-162 815 0
162 -815 -163 0
-163 799 0
-163 800 0
163 -800 -799 0
164 211 0
164 -165 0
-164 165 -211 0
164 0
-165 -190 0
-165 -191 0
165 191 190 0
166 213 0
166 -167 0
-166 167 -213 0
166 0
-167 -190 0
-167 168 0
167 -168 190 0
-168 -191 0
-168 169 0
168 -169 191 0
-169 -192 0
-169 -193 0
169 193 192 0
170 -167 0
170 215 0
-170 -215 167 0
170 0
171 211 0
171 -172 0
-171 172 -211 0
171 0
-172 173 0
-172 176 0
172 -176 -173 0
173 -174 0
173 -175 0
-173 175 174 0
-174 -193 0
-174 192 0
174 -192 193 0
-175 -192 0
-175 193 0
175 -193 192 0
-176 177 0
-176 180 0
176 -180 -177 0
177 -178 0
177 -179 0
-177 179 178 0
-178 -195 0
-178 194 0
178 -194 195 0
-179 -194 0
-179 195 0
179 -195 194 0
180 -181 0
180 -182 0
-180 182 181 0
-181 -197 0
-181 196 0
181 -196 197 0
-182 -196 0
-182 197 0
182 -197 196 0
183 213 0
183 -176 0
-183 176 -213 0
183 0
184 215 0
184 -176 0
-184 176 -215 0
184 0
185 216 0
185 -186 0
-185 186 -216 0
185 0
-186 172 0
-186 187 0
186 -187 -172 0
187 -188 0
187 -189 0
-187 189 188 0
-188 -191 0
-188 190 0
188 -190 191 0
-189 -190 0
-189 191 0
189 -191 190 0
198 -199 0
198 -202 0
-198 202 199 0
198 0
-199 -213 0
-199 200 0
199 -200 213 0
-200 -215 0
-200 201 0
200 -201 215 0
-201 -216 0
-201 211 0
201 -211 216 0
202 -203 0
202 -206 0
-202 206 203 0
-203 -211 0
-203 204 0
203 -204 211 0
-204 -215 0
-204 205 0
204 -205 215 0
-205 -216 0
-205 213 0
205 -213 216 0
206 -207 0
206 -210 0
-206 210 207 0
-207 -211 0
-207 208 0
207 -208 211 0
-208 -213 0
-208 209 0
208 -209 213 0
-209 -216 0
-209 215 0
209 -215 216 0
-210 -211 0
-210 212 0
210 -212 211 0
-212 -213 0
-212 214 0
212 -214 213 0
-214 -215 0
-214 216 0
214 -216 215 0
217 813 0
217 792 0
-217 -792 -813 0
217 0
218 724 0
218 719 0
-218 -719 -724 0
218 0
219 729 0
219 -220 0
-219 220 -729 0
219 0
-220 -724 0
-220 -719 0
220 719 724 0
221 734 0
221 -222 0
-221 222 -734 0
221 0
-222 -719 0
-222 223 0
222 -223 719 0
-223 -724 0
-223 -729 0
223 729 724 0
224 739 0
224 -225 0
-224 225 -739 0
224 0
-225 -719 0
-225 226 0
225 -226 719 0
-226 -724 0
-226 227 0
226 -227 724 0
-227 -729 0
-227 -734 0
227 734 729 0
228 744 0
228 -229 0
-228 229 -744 0
228 0
-229 -719 0
-229 230 0
229 -230 719 0
-230 -724 0
-230 231 0
230 -231 724 0
-231 -729 0
-231 232 0
231 -232 729 0
-232 -734 0
-232 -739 0
232 739 734 0
233 749 0
233 -234 0
-233 234 -749 0
233 0
-234 -719 0
-234 235 0
234 -235 719 0
-235 -724 0
-235 236 0
235 -236 724 0
-236 -729 0
-236 237 0
236 -237 729 0
-237 -734 0
-237 238 0
237 -238 734 0
-238 -739 0
-238 -744 0
238 744 739 0
239 754 0
239 -240 0
-239 240 -754 0
239 0
-240 -719 0
-240 241 0
240 -241 719 0
-241 -724 0
-241 242 0
241 -242 724 0
-242 -729 0
-242 243 0
242 -243 729 0
-243 -734 0
-243 244 0
243 -244 734 0
-244 -739 0
-244 245 0
244 -245 739 0
-245 -744 0
-245 -749 0
245 749 744 0
246 759 0
246 -247 0
-246 247 -759 0
246 0
-247 -719 0
-247 248 0
247 -248 719 0
-248 -724 0
-248 249 0
248 -249 724 0
-249 -729 0
-249 250 0
249 -250 729 0
-250 -734 0
-250 251 0
250 -251 734 0
-251 -739 0
-251 252 0
251 -252 739 0
-252 -744 0
-252 253 0
252 -253 744 0
-253 -749 0
-253 -754 0
253 754 749 0
254 764 0
254 -255 0
-254 255 -764 0
254 0
-255 -719 0
-255 256 0
255 -256 719 0
-256 -724 0
-256 257 0
256 -257 724 0
-257 -729 0
-257 258 0
257 -258 729 0
-258 -734 0
-258 259 0
258 -259 734 0
-259 -739 0
-259 260 0
259 -260 739 0
-260 -744 0
-260 261 0
260 -261 744 0
-261 -749 0
-261 262 0
261 -262 749 0
-262 -754 0
-262 -759 0
262 759 754 0
263 769 0
263 -264 0
-263 264 -769 0
263 0
-264 -719 0
-264 265 0
264 -265 719 0
-265 -724 0
-265 266 0
265 -266 724 0
-266 -729 0
-266 267 0
266 -267 729 0
-267 -734 0
-267 268 0
267 -268 734 0
-268 -739 0
-268 269 0
268 -269 739 0
-269 -744 0
-269 270 0
269 -270 744 0
-270 -749 0
-270 271 0
270 -271 749 0
-271 -754 0
-271 272 0
271 -272 754 0
-272 -759 0
-272 -764 0
272 764 759 0
273 775 0
273 -274 0
-273 274 -775 0
273 0
-274 -719 0
-274 275 0
274 -275 719 0
-275 -724 0
-275 276 0
275 -276 724 0
-276 -729 0
-276 277 0
276 -277 729 0
-277 -734 0
-277 278 0
277 -278 734 0
-278 -739 0
-278 279 0
278 -279 739 0
-279 -744 0
-279 280 0
279 -280 744 0
-280 -749 0
-280 281 0
280 -281 749 0
-281 -754 0
-281 282 0
281 -282 754 0
-282 -759 0
-282 283 0
282 -283 759 0
-283 -764 0
-283 -769 0
283 769 764 0
284 781 0
284 -285 0
-284 285 -781 0
284 0
-285 -719 0
-285 286 0
285 -286 719 0
-286 -724 0
-286 287 0
286 -287 724 0
-287 -729 0
-287 288 0
287 -288 729 0
-288 -734 0
-288 289 0
288 -289 734 0
-289 -739 0
-289 290 0
289 -290 739 0
-290 -744 0
-290 291 0
290 -291 744 0
-291 -749 0
-291 292 0
291 -292 749 0
-292 -754 0
-292 293 0
292 -293 754 0
-293 -759 0
-293 294 0
293 -294 759 0
-294 -764 0
-294 295 0
294 -295 764 0
-295 -769 0
-295 -775 0
295 775 769 0
296 786 0
296 -297 0
-296 297 -786 0
296 0
-297 -719 0
-297 298 0
297 -298 719 0
-298 -724 0
-298 299 0
298 -299 724 0
-299 -729 0
-299 300 0
299 -300 729 0
-300 -734 0
-300 301 0
300 -301 734 0
-301 -739 0
-301 302 0
301 -302 739 0
-302 -744 0
-302 303 0
302 -303 744 0
-303 -749 0
-303 304 0
303 -304 749 0
-304 -754 0
-304 305 0
304 -305 754 0
-305 -759 0
-305 306 0
305 -306 759 0
-306 -764 0
-306 307 0
306 -307 764 0
-307 -769 0
-307 308 0
307 -308 769 0
-308 -775 0
-308 -781 0
308 781 775 0
309 793 0
309 -310 0
-309 310 -793 0
309 0
-310 -719 0
-310 311 0
310 -311 719 0
-311 -724 0
-311 312 0
311 -312 724 0
-312 -729 0
-312 313 0
312 -313 729 0
-313 -734 0
-313 314 0
313 -314 734 0
-314 -739 0
-314 315 0
314 -315 739 0
-315 -744 0
-315 316 0
315 -316 744 0
-316 -749 0
-316 317 0
316 -317 749 0
-317 -754 0
-317 318 0
317 -318 754 0
-318 -759 0
-318 319 0
318 -319 759 0
-319 -764 0
-319 320 0
319 -320 764 0
-320 -769 0
-320 321 0
320 -321 769 0
-321 -775 0
-321 322 0
321 -322 775 0
-322 -781 0
-322 -786 0
322 786 781 0
323 798 0
323 -324 0
-323 324 -798 0
323 0
-324 -719 0
-324 325 0
324 -325 719 0
-325 -724 0
-325 326 0
325 -326 724 0
-326 -729 0
-326 327 0
326 -327 729 0
-327 -734 0
-327 328 0
327 -328 734 0
-328 -739 0
-328 329 0
328 -329 739 0
-329 -744 0
-329 330 0
329 -330 744 0
-330 -749 0
-330 331 0
330 -331 749 0
-331 -754 0
-331 332 0
331 -332 754 0
-332 -759 0
-332 333 0
332 -333 759 0
-333 -764 0
-333 334 0
333 -334 764 0
-334 -769 0
-334 335 0
334 -335 769 0
-335 -775 0
-335 336 0
335 -336 775 0
-336 -781 0
-336 337 0
336 -337 781 0
-337 -786 0
-337 -793 0
337 793 786 0
338 803 0
338 -339 0
-338 339 -803 0
338 0
-339 -719 0
-339 340 0
339 -340 719 0
-340 -724 0
-340 341 0
340 -341 724 0
-341 -729 0
-341 342 0
341 -342 729 0
-342 -734 0
-342 343 0
342 -343 734 0
-343 -739 0
-343 344 0
343 -344 739 0
-344 -744 0
-344 345 0
344 -345 744 0
-345 -749 0
-345 346 0
345 -346 749 0
-346 -754 0
-346 347 0
346 -347 754 0
-347 -759 0
-347 348 0
347 -348 759 0
-348 -764 0
-348 349 0
348 -349 764 0
-349 -769 0
-349 350 0
349 -350 769 0
-350 -775 0
-350 351 0
350 -351 775 0
-351 -781 0
-351 352 0
351 -352 781 0
-352 -786 0
-352 353 0
352 -353 786 0
-353 -793 0
-353 -798 0
353 798 793 0
354 808 0
354 -355 0
-354 355 -808 0
354 0
-355 -719 0
-355 356 0
355 -356 719 0
-356 -724 0
-356 357 0
356 -357 724 0
-357 -729 0
-357 358 0
357 -358 729 0
-358 -734 0
-358 359 0
358 -359 734 0
-359 -739 0
-359 360 0
359 -360 739 0
-360 -744 0
-360 361 0
360 -361 744 0
-361 -749 0
-361 362 0
361 -362 749 0
-362 -754 0
-362 363 0
362 -363 754 0
-363 -759 0
-363 364 0
363 -364 759 0
-364 -764 0
-364 365 0
364 -365 764 0
-365 -769 0
-365 366 0
365 -366 769 0
-366 -775 0
-366 367 0
366 -367 775 0
-367 -781 0
-367 368 0
367 -368 781 0
-368 -786 0
-368 369 0
368 -369 786 0
-369 -793 0
-369 370 0
369 -370 793 0
-370 -798 0
-370 -803 0
370 803 798 0
371 814 0
371 -372 0
-371 372 -814 0
371 0
-372 -719 0
-372 373 0
372 -373 719 0
-373 -724 0
-373 374 0
373 -374 724 0
-374 -729 0
-374 375 0
374 -375 729 0
-375 -734 0
-375 376 0
375 -376 734 0
-376 -739 0
-376 377 0
376 -377 739 0
-377 -744 0
-377 378 0
377 -378 744 0
-378 -749 0
-378 379 0
378 -379 749 0
-379 -754 0
-379 380 0
379 -380 754 0
-380 -759 0
-380 381 0
380 -381 759 0
-381 -764 0
-381 382 0
381 -382 764 0
-382 -769 0
-382 383 0
382 -383 769 0
-383 -775 0
-383 384 0
383 -384 775 0
-384 -781 0
-384 385 0
384 -385 781 0
-385 -786 0
-385 386 0
385 -386 786 0
-386 -793 0
-386 387 0
386 -387 793 0
-387 -798 0
-387 388 0
387 -388 798 0
-388 -803 0
-388 -808 0
388 808 803 0
389 770 0
389 730 0
-389 -730 -770 0
389 0
390 776 0
390 -391 0
-390 391 -776 0
390 0
-391 -770 0
-391 -730 0
391 730 770 0
392 787 0
392 -393 0
-392 393 -787 0
392 0
-393 -730 0
-393 394 0
393 -394 730 0
-394 -770 0
-394 -776 0
394 776 770 0
395 804 0
395 -396 0
-395 396 -804 0
395 0
-396 -730 0
-396 397 0
396 -397 730 0
-397 -770 0
-397 398 0
397 -398 770 0
-398 -776 0
-398 -787 0
398 787 776 0
399 809 0
399 -400 0
-399 400 -809 0
399 0
-400 -730 0
-400 401 0
400 -401 730 0
-401 -770 0
-401 402 0
401 -402 770 0
-402 -776 0
-402 403 0
402 -403 776 0
-403 -787 0
-403 -804 0
403 804 787 0
404 815 0
404 -405 0
-404 405 -815 0
404 0
-405 -730 0
-405 406 0
405 -406 730 0
-406 -770 0
-406 407 0
406 -407 770 0
-407 -776 0
-407 408 0
407 -408 776 0
-408 -787 0
-408 409 0
408 -409 787 0
-409 -804 0
-409 -809 0
409 809 804 0
410 725 0
410 720 0
-410 -720 -725 0
410 0
411 731 0
411 -412 0
-411 412 -731 0
411 0
-412 -725 0
-412 -720 0
412 720 725 0
413 735 0
413 -414 0
-413 414 -735 0
413 0
-414 -720 0
-414 415 0
414 -415 720 0
-415 -725 0
-415 -731 0
415 731 725 0
416 740 0
416 -417 0
-416 417 -740 0
416 0
-417 -720 0
-417 418 0
417 -418 720 0
-418 -725 0
-418 419 0
418 -419 725 0
-419 -731 0
-419 -735 0
419 735 731 0
420 745 0
420 -421 0
-420 421 -745 0
420 0
-421 -720 0
-421 422 0
421 -422 720 0
-422 -725 0
-422 423 0
422 -423 725 0
-423 -731 0
-423 424 0
423 -424 731 0
-424 -735 0
-424 -740 0
424 740 735 0
425 750 0
425 -426 0
-425 426 -750 0
425 0
-426 -720 0
-426 427 0
426 -427 720 0
-427 -725 0
-427 428 0
427 -428 725 0
-428 -731 0
-428 429 0
428 -429 731 0
-429 -735 0
-429 430 0
429 -430 735 0
-430 -740 0
-430 -745 0
430 745 740 0
431 755 0
431 -432 0
-431 432 -755 0
431 0
-432 -720 0
-432 433 0
432 -433 720 0
-433 -725 0
-433 434 0
433 -434 725 0
-434 -731 0
-434 435 0
434 -435 731 0
-435 -735 0
-435 436 0
435 -436 735 0
-436 -740 0
-436 437 0
436 -437 740 0
-437 -745 0
-437 -750 0
437 750 745 0
438 760 0
438 -439 0
-438 439 -760 0
438 0
-439 -720 0
-439 440 0
439 -440 720 0
-440 -725 0
-440 441 0
440 -441 725 0
-441 -731 0
-441 442 0
441 -442 731 0
-442 -735 0
-442 443 0
442 -443 735 0
-443 -740 0
-443 444 0
443 -444 740 0
-444 -745 0
-444 445 0
444 -445 745 0
-445 -750 0
-445 -755 0
445 755 750 0
446 765 0
446 -447 0
-446 447 -765 0
446 0
-447 -720 0
-447 448 0
447 -448 720 0
-448 -725 0
-448 449 0
448 -449 725 0
-449 -731 0
-449 450 0
449 -450 731 0
-450 -735 0
-450 451 0
450 -451 735 0
-451 -740 0
-451 452 0
451 -452 740 0
-452 -745 0
-452 453 0
452 -453 745 0
-453 -750 0
-453 454 0
453 -454 750 0
-454 -755 0
-454 -760 0
454 760 755 0
455 771 0
455 -456 0
-455 456 -771 0
455 0
-456 -720 0
-456 457 0
456 -457 720 0
-457 -725 0
-457 458 0
457 -458 725 0
-458 -731 0
-458 459 0
458 -459 731 0
-459 -735 0
-459 460 0
459 -460 735 0
-460 -740 0
-460 461 0
460 -461 740 0
-461 -745 0
-461 462 0
461 -462 745 0
-462 -750 0
-462 463 0
462 -463 750 0
-463 -755 0
-463 464 0
463 -464 755 0
-464 -760 0
-464 -765 0
464 765 760 0
465 777 0
465 -466 0
-465 466 -777 0
465 0
-466 -720 0
-466 467 0
466 -467 720 0
-467 -725 0
-467 468 0
467 -468 725 0
-468 -731 0
-468 469 0
468 -469 731 0
-469 -735 0
-469 470 0
469 -470 735 0
-470 -740 0
-470 471 0
470 -471 740 0
-471 -745 0
-471 472 0
471 -472 745 0
-472 -750 0
-472 473 0
472 -473 750 0
-473 -755 0
-473 474 0
473 -474 755 0
-474 -760 0
-474 475 0
474 -475 760 0
-475 -765 0
-475 -771 0
475 771 765 0
476 782 0
476 -477 0
-476 477 -782 0
476 0
-477 -720 0
-477 478 0
477 -478 720 0
-478 -725 0
-478 479 0
478 -479 725 0
-479 -731 0
-479 480 0
479 -480 731 0
-480 -735 0
-480 481 0
480 -481 735 0
-481 -740 0
-481 482 0
481 -482 740 0
-482 -745 0
-482 483 0
482 -483 745 0
-483 -750 0
-483 484 0
483 -484 750 0
-484 -755 0
-484 485 0
484 -485 755 0
-485 -760 0
-485 486 0
485 -486 760 0
-486 -765 0
-486 487 0
486 -487 765 0
-487 -771 0
-487 -777 0
487 777 771 0
488 788 0
488 -489 0
-488 489 -788 0
488 0
-489 -720 0
-489 490 0
489 -490 720 0
-490 -725 0
-490 491 0
490 -491 725 0
-491 -731 0
-491 492 0
491 -492 731 0
-492 -735 0
-492 493 0
492 -493 735 0
-493 -740 0
-493 494 0
493 -494 740 0
-494 -745 0
-494 495 0
494 -495 745 0
-495 -750 0
-495 496 0
495 -496 750 0
-496 -755 0
-496 497 0
496 -497 755 0
-497 -760 0
-497 498 0
497 -498 760 0
-498 -765 0
-498 499 0
498 -499 765 0
-499 -771 0
-499 500 0
499 -500 771 0
-500 -777 0
-500 -782 0
500 782 777 0
501 794 0
501 -502 0
-501 502 -794 0
501 0
-502 -720 0
-502 503 0
502 -503 720 0
-503 -725 0
-503 504 0
503 -504 725 0
-504 -731 0
-504 505 0
504 -505 731 0
-505 -735 0
-505 506 0
505 -506 735 0
-506 -740 0
-506 507 0
506 -507 740 0
-507 -745 0
-507 508 0
507 -508 745 0
-508 -750 0
-508 509 0
508 -509 750 0
-509 -755 0
-509 510 0
509 -510 755 0
-510 -760 0
-510 511 0
510 -511 760 0
-511 -765 0
-511 512 0
511 -512 765 0
-512 -771 0
-512 513 0
512 -513 771 0
-513 -777 0
-513 514 0
513 -514 777 0
-514 -782 0
-514 -788 0
514 788 782 0
515 799 0
515 -516 0
-515 516 -799 0
515 0
-516 -720 0
-516 517 0
516 -517 720 0
-517 -725 0
-517 518 0
517 -518 725 0
-518 -731 0
-518 519 0
518 -519 731 0
-519 -735 0
-519 520 0
519 -520 735 0
-520 -740 0
-520 521 0
520 -521 740 0
-521 -745 0
-521 522 0
521 -522 745 0
-522 -750 0
-522 523 0
522 -523 750 0
-523 -755 0
-523 524 0
523 -524 755 0
-524 -760 0
-524 525 0
524 -525 760 0
-525 -765 0
-525 526 0
525 -526 765 0
-526 -771 0
-526 527 0
526 -527 771 0
-527 -777 0
-527 528 0
527 -528 777 0
-528 -782 0
-528 529 0
528 -529 782 0
-529 -788 0
-529 -794 0
529 794 788 0
530 805 0
530 -531 0
-530 531 -805 0
530 0
-531 -720 0
-531 532 0
531 -532 720 0
-532 -725 0
-532 533 0
532 -533 725 0
-533 -731 0
-533 534 0
533 -534 731 0
-534 -735 0
-534 535 0
534 -535 735 0
-535 -740 0
-535 536 0
535 -536 740 0
-536 -745 0
-536 537 0
536 -537 745 0
-537 -750 0
-537 538 0
537 -538 750 0
-538 -755 0
-538 539 0
538 -539 755 0
-539 -760 0
-539 540 0
539 -540 760 0
-540 -765 0
-540 541 0
540 -541 765 0
-541 -771 0
-541 542 0
541 -542 771 0
-542 -777 0
-542 543 0
542 -543 777 0
-543 -782 0
-543 544 0
543 -544 782 0
-544 -788 0
-544 545 0
544 -545 788 0
-545 -794 0
-545 -799 0
545 799 794 0
546 810 0
546 -547 0
-546 547 -810 0
546 0
-547 -720 0
-547 548 0
547 -548 720 0
-548 -725 0
-548 549 0
548 -549 725 0
-549 -731 0
-549 550 0
549 -550 731 0
-550 -735 0
-550 551 0
550 -551 735 0
-551 -740 0
-551 552 0
551 -552 740 0
-552 -745 0
-552 553 0
552 -553 745 0
-553 -750 0
-553 554 0
553 -554 750 0
-554 -755 0
-554 555 0
554 -555 755 0
-555 -760 0
-555 556 0
555 -556 760 0
-556 -765 0
-556 557 0
556 -557 765 0
-557 -771 0
-557 558 0
557 -558 771 0
-558 -777 0
-558 559 0
558 -559 777 0
-559 -782 0
-559 560 0
559 -560 782 0
-560 -788 0
-560 561 0
560 -561 788 0
-561 -794 0
-561 562 0
561 -562 794 0
-562 -799 0
-562 -805 0
562 805 799 0
563 816 0
563 -564 0
-563 564 -816 0
563 0
-564 -720 0
-564 565 0
564 -565 720 0
-565 -725 0
-565 566 0
565 -566 725 0
-566 -731 0
-566 567 0
566 -567 731 0
-567 -735 0
-567 568 0
567 -568 735 0
-568 -740 0
-568 569 0
568 -569 740 0
-569 -745 0
-569 570 0
569 -570 745 0
-570 -750 0
-570 571 0
570 -571 750 0
-571 -755 0
-571 572 0
571 -572 755 0
-572 -760 0
-572 573 0
572 -573 760 0
-573 -765 0
-573 574 0
573 -574 765 0
-574 -771 0
-574 575 0
574 -575 771 0
-575 -777 0
-575 576 0
575 -576 777 0
-576 -782 0
-576 577 0
576 -577 782 0
-577 -788 0
-577 578 0
577 -578 788 0
-578 -794 0
-578 579 0
578 -579 794 0
-579 -799 0
-579 580 0
579 -580 799 0
-580 -805 0
-580 -810 0
580 810 805 0
581 726 0
581 721 0
-581 -721 -726 0
581 0
582 736 0
582 -583 0
-582 583 -736 0
582 0
-583 -726 0
-583 -721 0
583 721 726 0
584 741 0
584 -585 0
-584 585 -741 0
584 0
-585 -721 0
-585 586 0
585 -586 721 0
-586 -726 0
-586 -736 0
586 736 726 0
587 746 0
587 -588 0
-587 588 -746 0
587 0
-588 -721 0
-588 589 0
588 -589 721 0
-589 -726 0
-589 590 0
589 -590 726 0
-590 -736 0
-590 -741 0
590 741 736 0
591 751 0
591 -592 0
-591 592 -751 0
591 0
-592 -721 0
-592 593 0
592 -593 721 0
-593 -726 0
-593 594 0
593 -594 726 0
-594 -736 0
-594 595 0
594 -595 736 0
-595 -741 0
-595 -746 0
595 746 741 0
596 756 0
596 -597 0
-596 597 -756 0
596 0
-597 -721 0
-597 598 0
597 -598 721 0
-598 -726 0
-598 599 0
598 -599 726 0
-599 -736 0
-599 600 0
599 -600 736 0
-600 -741 0
-600 601 0
600 -601 741 0
-601 -746 0
-601 -751 0
601 751 746 0
602 761 0
602 -603 0
-602 603 -761 0
602 0
-603 -721 0
-603 604 0
603 -604 721 0
-604 -726 0
-604 605 0
604 -605 726 0
-605 -736 0
-605 606 0
605 -606 736 0
-606 -741 0
-606 607 0
606 -607 741 0
-607 -746 0
-607 608 0
607 -608 746 0
-608 -751 0
-608 -756 0
608 756 751 0
609 766 0
609 -610 0
-609 610 -766 0
609 0
-610 -721 0
-610 611 0
610 -611 721 0
-611 -726 0
-611 612 0
611 -612 726 0
-612 -736 0
-612 613 0
612 -613 736 0
-613 -741 0
-613 614 0
613 -614 741 0
-614 -746 0
-614 615 0
614 -615 746 0
-615 -751 0
-615 616 0
615 -616 751 0
-616 -756 0
-616 -761 0
616 761 756 0
617 772 0
617 -618 0
-617 618 -772 0
617 0
-618 -721 0
-618 619 0
618 -619 721 0
-619 -726 0
-619 620 0
619 -620 726 0
-620 -736 0
-620 621 0
620 -621 736 0
-621 -741 0
-621 622 0
621 -622 741 0
-622 -746 0
-622 623 0
622 -623 746 0
-623 -751 0
-623 624 0
623 -624 751 0
-624 -756 0
-624 625 0
624 -625 756 0
-625 -761 0
-625 -766 0
625 766 761 0
626 778 0
626 -627 0
-626 627 -778 0
626 0
-627 -721 0
-627 628 0
627 -628 721 0
-628 -726 0
-628 629 0
628 -629 726 0
-629 -736 0
-629 630 0
629 -630 736 0
-630 -741 0
-630 631 0
630 -631 741 0
-631 -746 0
-631 632 0
631 -632 746 0
-632 -751 0
-632 633 0
632 -633 751 0
-633 -756 0
-633 634 0
633 -634 756 0
-634 -761 0
-634 635 0
634 -635 761 0
-635 -766 0
-635 -772 0
635 772 766 0
636 783 0
636 -637 0
-636 637 -783 0
636 0
-637 -721 0
-637 638 0
637 -638 721 0
-638 -726 0
-638 639 0
638 -639 726 0
-639 -736 0
-639 640 0
639 -640 736 0
-640 -741 0
-640 641 0
640 -641 741 0
-641 -746 0
-641 642 0
641 -642 746 0
-642 -751 0
-642 643 0
642 -643 751 0
-643 -756 0
-643 644 0
643 -644 756 0
-644 -761 0
-644 645 0
644 -645 761 0
-645 -766 0
-645 646 0
645 -646 766 0
-646 -772 0
-646 -778 0
646 778 772 0
647 789 0
647 -648 0
-647 648 -789 0
647 0
-648 -721 0
-648 649 0
648 -649 721 0
-649 -726 0
-649 650 0
649 -650 726 0
-650 -736 0
-650 651 0
650 -651 736 0
-651 -741 0
-651 652 0
651 -652 741 0
-652 -746 0
-652 653 0
652 -653 746 0
-653 -751 0
-653 654 0
653 -654 751 0
-654 -756 0
-654 655 0
654 -655 756 0
-655 -761 0
-655 656 0
655 -656 761 0
-656 -766 0
-656 657 0
656 -657 766 0
-657 -772 0
-657 658 0
657 -658 772 0
-658 -778 0
-658 -783 0
658 783 778 0
659 795 0
659 -660 0
-659 660 -795 0
659 0
-660 -721 0
-660 661 0
660 -661 721 0
-661 -726 0
-661 662 0
661 -662 726 0
-662 -736 0
-662 663 0
662 -663 736 0
-663 -741 0
-663 664 0
663 -664 741 0
-664 -746 0
-664 665 0
664 -665 746 0
-665 -751 0
-665 666 0
665 -666 751 0
-666 -756 0
-666 667 0
666 -667 756 0
-667 -761 0
-667 668 0
667 -668 761 0
-668 -766 0
-668 669 0
668 -669 766 0
-669 -772 0
-669 670 0
669 -670 772 0
-670 -778 0
-670 671 0
670 -671 778 0
-671 -783 0
-671 -789 0
671 789 783 0
672 800 0
672 -673 0
-672 673 -800 0
672 0
-673 -721 0
-673 674 0
673 -674 721 0
-674 -726 0
-674 675 0
674 -675 726 0
-675 -736 0
-675 676 0
675 -676 736 0
-676 -741 0
-676 677 0
676 -677 741 0
-677 -746 0
-677 678 0
677 -678 746 0
-678 -751 0
-678 679 0
678 -679 751 0
-679 -756 0
-679 680 0
679 -680 756 0
-680 -761 0
-680 681 0
680 -681 761 0
-681 -766 0
-681 682 0
681 -682 766 0
-682 -772 0
-682 683 0
682 -683 772 0
-683 -778 0
-683 684 0
683 -684 778 0
-684 -783 0
-684 685 0
684 -685 783 0
-685 -789 0
-685 -795 0
685 795 789 0
686 811 0
686 -687 0
-686 687 -811 0
686 0
-687 -721 0
-687 688 0
687 -688 721 0
-688 -726 0
-688 689 0
688 -689 726 0
-689 -736 0
-689 690 0
689 -690 736 0
-690 -741 0
-690 691 0
690 -691 741 0
-691 -746 0
-691 692 0
691 -692 746 0
-692 -751 0
-692 693 0
692 -693 751 0
-693 -756 0
-693 694 0
693 -694 756 0
-694 -761 0
-694 695 0
694 -695 761 0
-695 -766 0
-695 696 0
695 -696 766 0
-696 -772 0
-696 697 0
696 -697 772 0
-697 -778 0
-697 698 0
697 -698 778 0
-698 -783 0
-698 699 0
698 -699 783 0
-699 -789 0
-699 700 0
699 -700 789 0
-700 -795 0
-700 -800 0
700 800 795 0
701 817 0
701 -702 0
-701 702 -817 0
701 0
-702 -721 0
-702 703 0
702 -703 721 0
-703 -726 0
-703 704 0
703 -704 726 0
-704 -736 0
-704 705 0
704 -705 736 0
-705 -741 0
-705 706 0
705 -706 741 0
-706 -746 0
-706 707 0
706 -707 746 0
-707 -751 0
-707 708 0
707 -708 751 0
-708 -756 0
-708 709 0
708 -709 756 0
-709 -761 0
-709 710 0
709 -710 761 0
-710 -766 0
-710 711 0
710 -711 766 0
-711 -772 0
-711 712 0
711 -712 772 0
-712 -778 0
-712 713 0
712 -713 778 0
-713 -783 0
-713 714 0
713 -714 783 0
-714 -789 0
-714 715 0
714 -715 789 0
-715 -795 0
-715 716 0
715 -716 795 0
-716 -800 0
-716 -811 0
716 811 800 0
717 -718 0
717 -722 0
-717 722 718 0
717 0
-718 130 0
-718 813 0
718 -813 -130 0
722 -723 0
722 -727 0
-722 727 723 0
-723 134 0
-723 813 0
723 -813 -134 0
727 -728 0
727 -732 0
-727 732 728 0
-728 138 0
-728 813 0
728 -813 -138 0
732 -733 0
732 -737 0
-732 737 733 0
-733 142 0
-733 813 0
733 -813 -142 0
737 -738 0
737 -742 0
-737 742 738 0
-738 76 0
-738 792 0
738 -792 -76 0
742 -743 0
742 -747 0
-742 747 743 0
-743 80 0
-743 792 0
743 -792 -80 0
747 -748 0
747 -752 0
-747 752 748 0
-748 146 0
-748 813 0
748 -813 -146 0
752 -753 0
752 -757 0
-752 757 753 0
-753 150 0
-753 813 0
753 -813 -150 0
757 -758 0
757 -762 0
-757 762 758 0
-758 154 0
-758 813 0
758 -813 -154 0
762 -763 0
762 -767 0
-762 767 763 0
-763 158 0
-763 813 0
763 -813 -158 0
767 -768 0
767 -773 0
-767 773 768 0
-768 84 0
-768 792 0
768 -792 -84 0
773 -774 0
773 -779 0
-773 779 774 0
-774 101 0
-774 813 0
774 -813 -101 0
779 -780 0
779 -784 0
-779 784 780 0
-780 105 0
-780 792 0
780 -792 -105 0
784 -785 0
784 -790 0
-784 790 785 0
-785 121 0
-785 792 0
785 -792 -121 0
790 -791 0
790 -796 0
-790 796 791 0
-791 109 0
-791 792 0
791 -792 -109 0
796 -797 0
796 -801 0
-796 801 797 0
-797 161 0
-797 813 0
797 -813 -161 0
801 -802 0
801 -806 0
-801 806 802 0
-802 88 0
-802 813 0
802 -813 -88 0
806 -807 0
806 -812 0
-806 812 807 0
-807 112 0
-807 813 0
807 -813 -112 0
-812 91 0
-812 813 0
812 -813 -91 0
